[VALIDATOR STDOUT]
Checking plan: /home/jfan5/Safety-gen/runs/benchmark/optic/ferry_20260201_171235/ferry/optic_results/ferry-l30-c16-s30001.plan
Plan executed successfully - checking goal
Plan valid
Final value: 71 

Successful plans:
Value: 71
 /home/jfan5/Safety-gen/runs/benchmark/optic/ferry_20260201_171235/ferry/optic_results/ferry-l30-c16-s30001.plan 71
